db/data/1818426886665517972102229885139796211.z3.out
-------------------
2500.146734769
